Route #1: 7 35 8 52 34 46
Route #2: 4 45 29 5 48 30
Route #3: 2 62 22 1 33 6
Route #4: 51 16 49 3 44 32 9
Route #5: 50 25 55 18 24 56 23 63
Route #6: 28 61 64 42 41 43
Route #7: 21 47 36 60 20 37 15 57
Route #8: 27 13 54 19 59 14
Route #9: 53 11 38 10 58
Route #10: 17 40 39 31 12 26
Cost 838